p cnf 229 277
-1 2 3 5 35 36 37 38 39 40 41 42 43 44 45 46 47 48 49 50 51 52 53 54 114 117 118 130 131 132 134 135 136 137 138 140 141 142 143 144 148 150 156 171 172 173 174 175 179 181 184 185 187 188 190 194 214 215 216 217 218 219 220 221 222 223 227 0 
-2 1 3 5 35 36 37 38 39 40 41 42 43 44 45 46 47 48 49 50 51 52 53 54 114 117 118 130 131 132 134 135 136 137 138 140 141 142 143 144 148 150 156 171 172 173 174 175 179 181 184 185 187 188 190 194 214 215 216 217 218 219 220 221 222 223 227 0 
-3 1 2 5 35 36 37 38 39 40 41 42 43 44 45 46 47 48 49 50 51 52 53 54 114 117 118 130 131 132 134 135 136 137 138 140 141 142 143 144 148 150 156 171 172 173 174 175 179 181 184 185 187 188 190 194 214 215 216 217 218 219 220 221 222 223 227 0 
-4 128 146 147 149 151 152 153 154 155 180 227 0 
-5 1 2 3 35 36 37 38 39 40 41 42 43 44 45 46 47 48 49 50 51 52 53 54 114 117 118 130 131 132 134 135 136 137 138 140 141 142 143 144 148 150 156 171 172 173 174 175 179 181 184 185 187 188 190 194 214 215 216 217 218 219 220 221 222 223 227 0 
-6 22 161 227 0 
-7 227 0 
-7 -6 22 161 227 0 
-8 17 228 -57 -61 0 
-8 17 227 0 
-9 227 0 
-10 81 87 201 210 227 0 
-11 227 0 
-12 227 0 
-13 91 109 113 120 122 167 225 -6 22 161 227 0 
-14 227 0 
-15 30 116 -16 227 0 
-17 8 227 0 
-18 20 59 72 79 93 97 107 115 227 0 
-19 84 -6 22 161 227 0 
-20 18 59 72 79 93 97 107 115 227 0 
-21 70 110 -22 6 161 227 0 
-23 -6 22 161 227 0 
-24 -6 22 161 227 0 
-25 -6 22 161 227 0 
-26 127 207 227 0 
-27 227 0 
-6 22 161 -28 227 0 
-11 -29 177 178 227 0 
-23 -6 22 161 -16 227 0 
-30 15 116 -31 227 0 
-32 76 -22 6 161 -16 227 0 
-33 124 -14 -6 22 161 -16 227 0 
-33 124 -34 -6 22 161 -16 227 0 
-35 1 2 3 5 36 37 38 39 40 41 42 43 44 45 46 47 48 49 50 51 52 53 54 114 117 118 130 131 132 134 135 136 137 138 140 141 142 143 144 148 150 156 171 172 173 174 175 179 181 184 185 187 188 190 194 214 215 216 217 218 219 220 221 222 223 227 0 
-36 1 2 3 5 35 37 38 39 40 41 42 43 44 45 46 47 48 49 50 51 52 53 54 114 117 118 130 131 132 134 135 136 137 138 140 141 142 143 144 148 150 156 171 172 173 174 175 179 181 184 185 187 188 190 194 214 215 216 217 218 219 220 221 222 223 227 0 
-37 1 2 3 5 35 36 38 39 40 41 42 43 44 45 46 47 48 49 50 51 52 53 54 114 117 118 130 131 132 134 135 136 137 138 140 141 142 143 144 148 150 156 171 172 173 174 175 179 181 184 185 187 188 190 194 214 215 216 217 218 219 220 221 222 223 227 0 
-38 1 2 3 5 35 36 37 39 40 41 42 43 44 45 46 47 48 49 50 51 52 53 54 114 117 118 130 131 132 134 135 136 137 138 140 141 142 143 144 148 150 156 171 172 173 174 175 179 181 184 185 187 188 190 194 214 215 216 217 218 219 220 221 222 223 227 0 
-39 1 2 3 5 35 36 37 38 40 41 42 43 44 45 46 47 48 49 50 51 52 53 54 114 117 118 130 131 132 134 135 136 137 138 140 141 142 143 144 148 150 156 171 172 173 174 175 179 181 184 185 187 188 190 194 214 215 216 217 218 219 220 221 222 223 227 0 
-40 1 2 3 5 35 36 37 38 39 41 42 43 44 45 46 47 48 49 50 51 52 53 54 114 117 118 130 131 132 134 135 136 137 138 140 141 142 143 144 148 150 156 171 172 173 174 175 179 181 184 185 187 188 190 194 214 215 216 217 218 219 220 221 222 223 227 0 
-41 1 2 3 5 35 36 37 38 39 40 42 43 44 45 46 47 48 49 50 51 52 53 54 114 117 118 130 131 132 134 135 136 137 138 140 141 142 143 144 148 150 156 171 172 173 174 175 179 181 184 185 187 188 190 194 214 215 216 217 218 219 220 221 222 223 227 0 
-42 1 2 3 5 35 36 37 38 39 40 41 43 44 45 46 47 48 49 50 51 52 53 54 114 117 118 130 131 132 134 135 136 137 138 140 141 142 143 144 148 150 156 171 172 173 174 175 179 181 184 185 187 188 190 194 214 215 216 217 218 219 220 221 222 223 227 0 
-43 1 2 3 5 35 36 37 38 39 40 41 42 44 45 46 47 48 49 50 51 52 53 54 114 117 118 130 131 132 134 135 136 137 138 140 141 142 143 144 148 150 156 171 172 173 174 175 179 181 184 185 187 188 190 194 214 215 216 217 218 219 220 221 222 223 227 0 
-44 1 2 3 5 35 36 37 38 39 40 41 42 43 45 46 47 48 49 50 51 52 53 54 114 117 118 130 131 132 134 135 136 137 138 140 141 142 143 144 148 150 156 171 172 173 174 175 179 181 184 185 187 188 190 194 214 215 216 217 218 219 220 221 222 223 227 0 
-45 1 2 3 5 35 36 37 38 39 40 41 42 43 44 46 47 48 49 50 51 52 53 54 114 117 118 130 131 132 134 135 136 137 138 140 141 142 143 144 148 150 156 171 172 173 174 175 179 181 184 185 187 188 190 194 214 215 216 217 218 219 220 221 222 223 227 0 
-46 1 2 3 5 35 36 37 38 39 40 41 42 43 44 45 47 48 49 50 51 52 53 54 114 117 118 130 131 132 134 135 136 137 138 140 141 142 143 144 148 150 156 171 172 173 174 175 179 181 184 185 187 188 190 194 214 215 216 217 218 219 220 221 222 223 227 0 
-47 1 2 3 5 35 36 37 38 39 40 41 42 43 44 45 46 48 49 50 51 52 53 54 114 117 118 130 131 132 134 135 136 137 138 140 141 142 143 144 148 150 156 171 172 173 174 175 179 181 184 185 187 188 190 194 214 215 216 217 218 219 220 221 222 223 227 0 
-48 1 2 3 5 35 36 37 38 39 40 41 42 43 44 45 46 47 49 50 51 52 53 54 114 117 118 130 131 132 134 135 136 137 138 140 141 142 143 144 148 150 156 171 172 173 174 175 179 181 184 185 187 188 190 194 214 215 216 217 218 219 220 221 222 223 227 0 
-49 1 2 3 5 35 36 37 38 39 40 41 42 43 44 45 46 47 48 50 51 52 53 54 114 117 118 130 131 132 134 135 136 137 138 140 141 142 143 144 148 150 156 171 172 173 174 175 179 181 184 185 187 188 190 194 214 215 216 217 218 219 220 221 222 223 227 0 
-50 1 2 3 5 35 36 37 38 39 40 41 42 43 44 45 46 47 48 49 51 52 53 54 114 117 118 130 131 132 134 135 136 137 138 140 141 142 143 144 148 150 156 171 172 173 174 175 179 181 184 185 187 188 190 194 214 215 216 217 218 219 220 221 222 223 227 0 
-51 1 2 3 5 35 36 37 38 39 40 41 42 43 44 45 46 47 48 49 50 52 53 54 114 117 118 130 131 132 134 135 136 137 138 140 141 142 143 144 148 150 156 171 172 173 174 175 179 181 184 185 187 188 190 194 214 215 216 217 218 219 220 221 222 223 227 0 
-52 1 2 3 5 35 36 37 38 39 40 41 42 43 44 45 46 47 48 49 50 51 53 54 114 117 118 130 131 132 134 135 136 137 138 140 141 142 143 144 148 150 156 171 172 173 174 175 179 181 184 185 187 188 190 194 214 215 216 217 218 219 220 221 222 223 227 0 
-53 1 2 3 5 35 36 37 38 39 40 41 42 43 44 45 46 47 48 49 50 51 52 54 114 117 118 130 131 132 134 135 136 137 138 140 141 142 143 144 148 150 156 171 172 173 174 175 179 181 184 185 187 188 190 194 214 215 216 217 218 219 220 221 222 223 227 0 
-54 1 2 3 5 35 36 37 38 39 40 41 42 43 44 45 46 47 48 49 50 51 52 53 114 117 118 130 131 132 134 135 136 137 138 140 141 142 143 144 148 150 156 171 172 173 174 175 179 181 184 185 187 188 190 194 214 215 216 217 218 219 220 221 222 223 227 0 
-23 -55 62 119 129 196 -54 1 2 3 5 35 36 37 38 39 40 41 42 43 44 45 46 47 48 49 50 51 52 53 114 117 118 130 131 132 134 135 136 137 138 140 141 142 143 144 148 150 156 171 172 173 174 175 179 181 184 185 187 188 190 194 214 215 216 217 218 219 220 221 222 223 -56 133 227 0 
-57 61 -58 -59 18 20 72 79 93 97 107 115 227 0 
-8 17 -60 227 0 
-61 57 -62 55 119 129 196 -8 17 -63 227 0 
-64 90 98 103 182 183 191 227 0 
-56 133 -6 22 161 -65 227 0 
-66 198 -67 -68 -69 -70 21 110 227 0 
-71 227 0 
-72 18 20 59 79 93 97 107 115 -6 22 161 227 0 
-73 227 0 
-72 18 20 59 79 93 97 107 115 -74 -6 22 161 227 0 
-22 6 161 -16 227 0 
-30 15 116 -65 227 0 
-75 159 227 0 
-65 227 0 
-22 6 161 -65 227 0 
-23 227 0 
-76 32 227 0 
-77 95 -32 76 -30 15 116 -78 227 0 
-19 84 -32 76 -34 227 0 
-14 -6 22 161 227 0 
-56 133 -6 22 161 227 0 
-79 18 20 59 72 93 97 107 115 227 0 
-57 61 -56 133 -80 163 170 189 204 224 -12 227 0 
-14 -81 10 87 201 210 -82 -6 22 161 227 0 
-83 227 0 
-34 -6 22 161 227 0 
-84 19 -85 -6 22 161 227 0 
-15 30 116 227 0 
-86 227 0 
-33 124 227 0 
-87 10 81 201 210 -88 227 0 
-79 18 20 59 72 93 97 107 115 -6 22 161 227 0 
-11 -6 22 161 227 0 
-89 -6 22 161 227 0 
-57 61 -90 64 98 103 182 183 191 227 0 
-57 61 -6 22 161 227 0 
-22 6 161 227 0 
-91 13 109 113 120 122 167 225 227 0 
-30 15 116 -78 227 0 
-59 18 20 72 79 93 97 107 115 -6 22 161 227 0 
-6 22 161 -78 227 0 
-92 227 0 
-93 18 20 59 72 79 97 107 115 227 0 
-94 227 0 
-95 77 -6 22 161 227 0 
-96 227 0 
-57 61 -97 18 20 59 72 79 93 107 115 -11 -6 22 161 227 0 
-98 64 90 103 182 183 191 227 0 
-34 227 0 
-99 -6 22 161 227 0 
-100 227 0 
-101 -6 22 161 227 0 
-56 133 227 0 
-77 95 227 0 
-57 61 -99 -6 22 161 227 0 
-57 61 -101 -6 22 161 227 0 
-56 133 -57 61 -102 -76 32 227 0 
-57 61 -15 30 116 -19 84 -12 227 0 
-12 -6 22 161 227 0 
-57 61 -103 64 90 98 182 183 191 -6 22 161 227 0 
-104 227 0 
-70 21 110 -6 22 161 227 0 
-105 -72 18 20 59 79 93 97 107 115 227 0 
-106 -107 18 20 59 72 79 93 97 115 227 0 
-108 -15 30 116 -109 13 91 113 120 122 167 225 -110 21 70 -111 227 0 
-112 176 -113 13 91 109 120 122 167 225 227 0 
-114 1 2 3 5 35 36 37 38 39 40 41 42 43 44 45 46 47 48 49 50 51 52 53 54 117 118 130 131 132 134 135 136 137 138 140 141 142 143 144 148 150 156 171 172 173 174 175 179 181 184 185 187 188 190 194 214 215 216 217 218 219 220 221 222 223 229 -112 -176 0 
-57 61 227 0 
-115 18 20 59 72 79 93 97 107 227 0 
-116 15 30 227 0 
-117 1 2 3 5 35 36 37 38 39 40 41 42 43 44 45 46 47 48 49 50 51 52 53 54 114 118 130 131 132 134 135 136 137 138 140 141 142 143 144 148 150 156 171 172 173 174 175 179 181 184 185 187 188 190 194 214 215 216 217 218 219 220 221 222 223 227 0 
-118 1 2 3 5 35 36 37 38 39 40 41 42 43 44 45 46 47 48 49 50 51 52 53 54 114 117 130 131 132 134 135 136 137 138 140 141 142 143 144 148 150 156 171 172 173 174 175 179 181 184 185 187 188 190 194 214 215 216 217 218 219 220 221 222 223 227 0 
-62 55 119 129 196 227 0 
-97 18 20 59 72 79 93 107 115 227 0 
-119 55 62 129 196 227 0 
-120 13 91 109 113 122 167 225 -121 227 0 
-122 13 91 109 113 120 167 225 -123 227 0 
-57 61 -124 33 -125 227 0 
-120 13 91 109 113 122 167 225 -126 227 0 
-32 76 -104 227 0 
-33 124 -17 8 -6 22 161 227 0 
-127 26 207 227 0 
-33 124 -128 4 146 147 149 151 152 153 154 155 180 -14 -6 22 161 227 0 
-57 61 -104 -129 55 62 119 196 -17 8 -6 22 161 227 0 
-130 1 2 3 5 35 36 37 38 39 40 41 42 43 44 45 46 47 48 49 50 51 52 53 54 114 117 118 131 132 134 135 136 137 138 140 141 142 143 144 148 150 156 171 172 173 174 175 179 181 184 185 187 188 190 194 214 215 216 217 218 219 220 221 222 223 227 0 
-131 1 2 3 5 35 36 37 38 39 40 41 42 43 44 45 46 47 48 49 50 51 52 53 54 114 117 118 130 132 134 135 136 137 138 140 141 142 143 144 148 150 156 171 172 173 174 175 179 181 184 185 187 188 190 194 214 215 216 217 218 219 220 221 222 223 227 0 
-132 1 2 3 5 35 36 37 38 39 40 41 42 43 44 45 46 47 48 49 50 51 52 53 54 114 117 118 130 131 134 135 136 137 138 140 141 142 143 144 148 150 156 171 172 173 174 175 179 181 184 185 187 188 190 194 214 215 216 217 218 219 220 221 222 223 227 0 
-133 56 227 0 
-134 1 2 3 5 35 36 37 38 39 40 41 42 43 44 45 46 47 48 49 50 51 52 53 54 114 117 118 130 131 132 135 136 137 138 140 141 142 143 144 148 150 156 171 172 173 174 175 179 181 184 185 187 188 190 194 214 215 216 217 218 219 220 221 222 223 227 0 
-135 1 2 3 5 35 36 37 38 39 40 41 42 43 44 45 46 47 48 49 50 51 52 53 54 114 117 118 130 131 132 134 136 137 138 140 141 142 143 144 148 150 156 171 172 173 174 175 179 181 184 185 187 188 190 194 214 215 216 217 218 219 220 221 222 223 227 0 
-136 1 2 3 5 35 36 37 38 39 40 41 42 43 44 45 46 47 48 49 50 51 52 53 54 114 117 118 130 131 132 134 135 137 138 140 141 142 143 144 148 150 156 171 172 173 174 175 179 181 184 185 187 188 190 194 214 215 216 217 218 219 220 221 222 223 227 0 
-137 1 2 3 5 35 36 37 38 39 40 41 42 43 44 45 46 47 48 49 50 51 52 53 54 114 117 118 130 131 132 134 135 136 138 140 141 142 143 144 148 150 156 171 172 173 174 175 179 181 184 185 187 188 190 194 214 215 216 217 218 219 220 221 222 223 227 0 
-138 1 2 3 5 35 36 37 38 39 40 41 42 43 44 45 46 47 48 49 50 51 52 53 54 114 117 118 130 131 132 134 135 136 137 140 141 142 143 144 148 150 156 171 172 173 174 175 179 181 184 185 187 188 190 194 214 215 216 217 218 219 220 221 222 223 227 0 
-139 192 193 205 227 0 
-140 1 2 3 5 35 36 37 38 39 40 41 42 43 44 45 46 47 48 49 50 51 52 53 54 114 117 118 130 131 132 134 135 136 137 138 141 142 143 144 148 150 156 171 172 173 174 175 179 181 184 185 187 188 190 194 214 215 216 217 218 219 220 221 222 223 227 0 
-141 1 2 3 5 35 36 37 38 39 40 41 42 43 44 45 46 47 48 49 50 51 52 53 54 114 117 118 130 131 132 134 135 136 137 138 140 142 143 144 148 150 156 171 172 173 174 175 179 181 184 185 187 188 190 194 214 215 216 217 218 219 220 221 222 223 227 0 
-142 1 2 3 5 35 36 37 38 39 40 41 42 43 44 45 46 47 48 49 50 51 52 53 54 114 117 118 130 131 132 134 135 136 137 138 140 141 143 144 148 150 156 171 172 173 174 175 179 181 184 185 187 188 190 194 214 215 216 217 218 219 220 221 222 223 227 0 
-143 1 2 3 5 35 36 37 38 39 40 41 42 43 44 45 46 47 48 49 50 51 52 53 54 114 117 118 130 131 132 134 135 136 137 138 140 141 142 144 148 150 156 171 172 173 174 175 179 181 184 185 187 188 190 194 214 215 216 217 218 219 220 221 222 223 227 0 
-144 1 2 3 5 35 36 37 38 39 40 41 42 43 44 45 46 47 48 49 50 51 52 53 54 114 117 118 130 131 132 134 135 136 137 138 140 141 142 143 148 150 156 171 172 173 174 175 179 181 184 185 187 188 190 194 214 215 216 217 218 219 220 221 222 223 227 0 
-14 -22 6 161 -16 227 0 
-23 -29 177 178 227 0 
-145 227 0 
-146 4 128 147 149 151 152 153 154 155 180 227 0 
-147 4 128 146 149 151 152 153 154 155 180 227 0 
-148 1 2 3 5 35 36 37 38 39 40 41 42 43 44 45 46 47 48 49 50 51 52 53 54 114 117 118 130 131 132 134 135 136 137 138 140 141 142 143 144 150 156 171 172 173 174 175 179 181 184 185 187 188 190 194 214 215 216 217 218 219 220 221 222 223 227 0 
-149 4 128 146 147 151 152 153 154 155 180 227 0 
-150 1 2 3 5 35 36 37 38 39 40 41 42 43 44 45 46 47 48 49 50 51 52 53 54 114 117 118 130 131 132 134 135 136 137 138 140 141 142 143 144 148 156 171 172 173 174 175 179 181 184 185 187 188 190 194 214 215 216 217 218 219 220 221 222 223 227 0 
-151 4 128 146 147 149 152 153 154 155 180 227 0 
-152 4 128 146 147 149 151 153 154 155 180 227 0 
-153 4 128 146 147 149 151 152 154 155 180 227 0 
-154 4 128 146 147 149 151 152 153 155 180 -23 -6 22 161 227 0 
-155 4 128 146 147 149 151 152 153 154 180 -145 227 0 
-156 1 2 3 5 35 36 37 38 39 40 41 42 43 44 45 46 47 48 49 50 51 52 53 54 114 117 118 130 131 132 134 135 136 137 138 140 141 142 143 144 148 150 171 172 173 174 175 179 181 184 185 187 188 190 194 214 215 216 217 218 219 220 221 222 223 227 0 
-157 227 0 
-158 168 227 0 
-56 133 -29 177 178 227 0 
-30 15 116 -31 227 0 
-6 22 161 -78 -159 75 227 0 
-14 -22 6 161 -78 227 0 
-160 227 0 
-99 -6 22 161 -16 227 0 
-161 6 22 -78 227 0 
-104 -161 6 22 -78 227 0 
-162 -6 22 161 229 -112 -176 0 
-57 61 -133 56 -163 80 170 189 204 224 -13 91 109 113 120 122 167 225 -17 8 227 0 
-162 -6 22 161 228 -57 -61 0 
-19 84 -6 22 161 -65 227 0 
-88 -22 6 161 -65 227 0 
-11 -6 22 161 -65 227 0 
-23 -6 22 161 -65 227 0 
-164 227 0 
-165 -6 22 161 -65 227 0 
-166 -6 22 161 227 0 
-57 61 -133 56 227 0 
-167 13 91 109 113 120 122 225 -168 158 227 0 
-88 -22 6 161 -169 227 0 
-11 -6 22 161 -16 227 0 
-165 -6 22 161 -16 227 0 
-30 15 116 -16 227 0 
-170 80 163 189 204 224 227 0 
-171 1 2 3 5 35 36 37 38 39 40 41 42 43 44 45 46 47 48 49 50 51 52 53 54 114 117 118 130 131 132 134 135 136 137 138 140 141 142 143 144 148 150 156 172 173 174 175 179 181 184 185 187 188 190 194 214 215 216 217 218 219 220 221 222 223 227 0 
-172 1 2 3 5 35 36 37 38 39 40 41 42 43 44 45 46 47 48 49 50 51 52 53 54 114 117 118 130 131 132 134 135 136 137 138 140 141 142 143 144 148 150 156 171 173 174 175 179 181 184 185 187 188 190 194 214 215 216 217 218 219 220 221 222 223 227 0 
-173 1 2 3 5 35 36 37 38 39 40 41 42 43 44 45 46 47 48 49 50 51 52 53 54 114 117 118 130 131 132 134 135 136 137 138 140 141 142 143 144 148 150 156 171 172 174 175 179 181 184 185 187 188 190 194 214 215 216 217 218 219 220 221 222 223 227 0 
-174 1 2 3 5 35 36 37 38 39 40 41 42 43 44 45 46 47 48 49 50 51 52 53 54 114 117 118 130 131 132 134 135 136 137 138 140 141 142 143 144 148 150 156 171 172 173 175 179 181 184 185 187 188 190 194 214 215 216 217 218 219 220 221 222 223 227 0 
-175 1 2 3 5 35 36 37 38 39 40 41 42 43 44 45 46 47 48 49 50 51 52 53 54 114 117 118 130 131 132 134 135 136 137 138 140 141 142 143 144 148 150 156 171 172 173 174 179 181 184 185 187 188 190 194 214 215 216 217 218 219 220 221 222 223 227 0 
-11 -29 177 178 227 0 
-104 -6 22 161 227 0 
-56 133 -6 22 161 -169 227 0 
-176 112 -88 -6 22 161 -16 227 0 
-33 124 -14 -6 22 161 -78 227 0 
-33 124 -34 -6 22 161 -78 227 0 
-75 159 227 0 
-23 -6 22 161 -78 227 0 
-19 84 -30 15 116 -11 -78 227 0 
-33 124 -6 22 161 -78 227 0 
-75 159 227 0 
-19 84 -30 15 116 -11 -16 227 0 
-33 124 -6 22 161 -16 227 0 
-177 29 178 227 0 
-178 29 177 227 0 
-19 84 -6 22 161 -16 227 0 
-179 1 2 3 5 35 36 37 38 39 40 41 42 43 44 45 46 47 48 49 50 51 52 53 54 114 117 118 130 131 132 134 135 136 137 138 140 141 142 143 144 148 150 156 171 172 173 174 175 181 184 185 187 188 190 194 214 215 216 217 218 219 220 221 222 223 227 0 
-180 4 128 146 147 149 151 152 153 154 155 227 0 
-181 1 2 3 5 35 36 37 38 39 40 41 42 43 44 45 46 47 48 49 50 51 52 53 54 114 117 118 130 131 132 134 135 136 137 138 140 141 142 143 144 148 150 156 171 172 173 174 175 179 184 185 187 188 190 194 214 215 216 217 218 219 220 221 222 223 227 0 
-182 64 90 98 103 183 191 227 0 
-183 64 90 98 103 182 191 227 0 
-90 64 98 103 182 183 191 227 0 
-72 18 20 59 79 93 97 107 115 227 0 
-184 1 2 3 5 35 36 37 38 39 40 41 42 43 44 45 46 47 48 49 50 51 52 53 54 114 117 118 130 131 132 134 135 136 137 138 140 141 142 143 144 148 150 156 171 172 173 174 175 179 181 185 187 188 190 194 214 215 216 217 218 219 220 221 222 223 227 0 
-185 1 2 3 5 35 36 37 38 39 40 41 42 43 44 45 46 47 48 49 50 51 52 53 54 114 117 118 130 131 132 134 135 136 137 138 140 141 142 143 144 148 150 156 171 172 173 174 175 179 181 184 187 188 190 194 214 215 216 217 218 219 220 221 222 223 227 0 
-186 227 0 
-187 1 2 3 5 35 36 37 38 39 40 41 42 43 44 45 46 47 48 49 50 51 52 53 54 114 117 118 130 131 132 134 135 136 137 138 140 141 142 143 144 148 150 156 171 172 173 174 175 179 181 184 185 188 190 194 214 215 216 217 218 219 220 221 222 223 227 0 
-188 1 2 3 5 35 36 37 38 39 40 41 42 43 44 45 46 47 48 49 50 51 52 53 54 114 117 118 130 131 132 134 135 136 137 138 140 141 142 143 144 148 150 156 171 172 173 174 175 179 181 184 185 187 190 194 214 215 216 217 218 219 220 221 222 223 227 0 
-103 64 90 98 182 183 191 227 0 
-189 80 163 170 204 224 227 0 
-190 1 2 3 5 35 36 37 38 39 40 41 42 43 44 45 46 47 48 49 50 51 52 53 54 114 117 118 130 131 132 134 135 136 137 138 140 141 142 143 144 148 150 156 171 172 173 174 175 179 181 184 185 187 188 194 214 215 216 217 218 219 220 221 222 223 227 0 
-191 64 90 98 103 182 183 227 0 
-192 139 193 205 227 0 
-193 139 192 205 227 0 
-194 1 2 3 5 35 36 37 38 39 40 41 42 43 44 45 46 47 48 49 50 51 52 53 54 114 117 118 130 131 132 134 135 136 137 138 140 141 142 143 144 148 150 156 171 172 173 174 175 179 181 184 185 187 188 190 214 215 216 217 218 219 220 221 222 223 227 0 
-6 22 161 -7 -195 227 0 
-196 55 62 119 129 227 0 
-197 227 0 
-198 66 227 0 
-32 76 227 0 
-25 227 0 
-199 227 0 
-58 227 0 
-34 -200 227 0 
-201 10 81 87 210 227 0 
-163 80 170 189 204 224 227 0 
-30 15 116 227 0 
-202 206 227 0 
-203 227 0 
-29 177 178 227 0 
-55 62 119 129 196 227 0 
-204 80 163 170 189 224 227 0 
-205 139 192 193 227 0 
-56 133 -6 22 161 -7 -206 202 227 0 
-207 26 127 227 0 
-208 -6 22 161 227 0 
-19 84 -209 -210 10 81 87 201 227 0 
-211 -212 227 0 
-212 -183 64 90 98 103 182 191 -213 227 0 
-214 1 2 3 5 35 36 37 38 39 40 41 42 43 44 45 46 47 48 49 50 51 52 53 54 114 117 118 130 131 132 134 135 136 137 138 140 141 142 143 144 148 150 156 171 172 173 174 175 179 181 184 185 187 188 190 194 215 216 217 218 219 220 221 222 223 227 0 
-215 1 2 3 5 35 36 37 38 39 40 41 42 43 44 45 46 47 48 49 50 51 52 53 54 114 117 118 130 131 132 134 135 136 137 138 140 141 142 143 144 148 150 156 171 172 173 174 175 179 181 184 185 187 188 190 194 214 216 217 218 219 220 221 222 223 227 0 
-216 1 2 3 5 35 36 37 38 39 40 41 42 43 44 45 46 47 48 49 50 51 52 53 54 114 117 118 130 131 132 134 135 136 137 138 140 141 142 143 144 148 150 156 171 172 173 174 175 179 181 184 185 187 188 190 194 214 215 217 218 219 220 221 222 223 227 0 
-217 1 2 3 5 35 36 37 38 39 40 41 42 43 44 45 46 47 48 49 50 51 52 53 54 114 117 118 130 131 132 134 135 136 137 138 140 141 142 143 144 148 150 156 171 172 173 174 175 179 181 184 185 187 188 190 194 214 215 216 218 219 220 221 222 223 227 0 
-218 1 2 3 5 35 36 37 38 39 40 41 42 43 44 45 46 47 48 49 50 51 52 53 54 114 117 118 130 131 132 134 135 136 137 138 140 141 142 143 144 148 150 156 171 172 173 174 175 179 181 184 185 187 188 190 194 214 215 216 217 219 220 221 222 223 227 0 
-219 1 2 3 5 35 36 37 38 39 40 41 42 43 44 45 46 47 48 49 50 51 52 53 54 114 117 118 130 131 132 134 135 136 137 138 140 141 142 143 144 148 150 156 171 172 173 174 175 179 181 184 185 187 188 190 194 214 215 216 217 218 220 221 222 223 227 0 
-220 1 2 3 5 35 36 37 38 39 40 41 42 43 44 45 46 47 48 49 50 51 52 53 54 114 117 118 130 131 132 134 135 136 137 138 140 141 142 143 144 148 150 156 171 172 173 174 175 179 181 184 185 187 188 190 194 214 215 216 217 218 219 221 222 223 227 0 
-221 1 2 3 5 35 36 37 38 39 40 41 42 43 44 45 46 47 48 49 50 51 52 53 54 114 117 118 130 131 132 134 135 136 137 138 140 141 142 143 144 148 150 156 171 172 173 174 175 179 181 184 185 187 188 190 194 214 215 216 217 218 219 220 222 223 227 0 
-222 1 2 3 5 35 36 37 38 39 40 41 42 43 44 45 46 47 48 49 50 51 52 53 54 114 117 118 130 131 132 134 135 136 137 138 140 141 142 143 144 148 150 156 171 172 173 174 175 179 181 184 185 187 188 190 194 214 215 216 217 218 219 220 221 223 227 0 
-114 1 2 3 5 35 36 37 38 39 40 41 42 43 44 45 46 47 48 49 50 51 52 53 54 117 118 130 131 132 134 135 136 137 138 140 141 142 143 144 148 150 156 171 172 173 174 175 179 181 184 185 187 188 190 194 214 215 216 217 218 219 220 221 222 223 228 -57 -61 0 
-223 1 2 3 5 35 36 37 38 39 40 41 42 43 44 45 46 47 48 49 50 51 52 53 54 114 117 118 130 131 132 134 135 136 137 138 140 141 142 143 144 148 150 156 171 172 173 174 175 179 181 184 185 187 188 190 194 214 215 216 217 218 219 220 221 222 -23 -29 177 178 227 0 
-224 80 163 170 189 204 227 0 
-225 13 91 109 113 120 122 167 227 0 
-32 76 -22 6 161 -65 227 0 
-33 124 -14 -6 22 161 -65 227 0 
-33 124 -34 -6 22 161 -226 227 0 
-19 84 -30 15 116 -11 -65 227 0 
-33 124 -6 22 161 -65 227 0 
